
  22   10
  10   10   10   10   10   10   10   10   10   10

   0   0   0   0   0   0   0   0   0   0   0   4 2 5 8 10 
   5   0   0   0  10   0   0   0   0   0   0   2 7 3 
   9   0   0   0  10   0   0   0   0   0   0   2 21 4 
   8   0   0   0   0   0   0   0   0  10   0   3 11 9 6 
   4  10   0   0   0   0   0   0   0   0   0   1 6 
   2   0   0   0  10   0   0   0   0   0   0   5 19 16 15 14 12 
   8   0  10   0   0   0   0   0   0   0   0   4 21 19 13 11 
  10   0  10   0   0   0   0   0   0   0   0   3 19 15 12 
  10   0   0   0   0   0   0   0  10   0   0   2 19 12 
   2   0   0   0   0   0   0  10   0   0   0   1 11 
   4  10   0   0   0   0   0   0   0   0   0   2 16 14 
   4  10   0   0   0   0   0   0   0   0   0   3 20 18 17 
   7   0  10   0   0   0   0   0   0   0   0   1 14 
   2   0   0   0   0   0  10   0   0   0   0   2 18 17 
   3   0   0   0   0   0  10   0   0   0   0   2 18 17 
   6   0   0   0   0   0  10   0   0   0   0   1 17 
   4   0   0   0  10   0   0   0   0   0   0   1 22
   7   0   0   0  10   0   0   0   0   0   0   1 22
   2   0   0   0   0   0  10   0   0   0   0   1 22
   2  10   0   0   0   0   0   0   0   0   0   1 22
   7   0   0   0   0   0  10   0   0   0   0   1 22
   0   0   0   0   0   0   0   0   0   0   0   0 
